(set-info :smt-lib-version 2.6)
(set-logic QF_DT)
(set-info :source |
Generated by: Federico Mora
Generated on: 2023-07-20
Generator: z3 Python bindings via UCLID5 Python API
Application: Blocksworld Automated Reasoning Problems.
Target solvers: Algaroba, cvc5, Z3, Princess
Publications: Shah, Mora and Seshia. An Eager Satisfiability Modulo Theories Solver for Algebraic Datatypes. AAAI ’24 |)
(set-info :license "https://creativecommons.org/licenses/by/4.0/")
(set-info :category "industrial")
(set-info :status unsat) 
(declare-datatypes ((Enum_A_B_C_D_E_F_G_H_I_J_K_L_M_N_O_P_Q_R_S_T_U_V_W_X 0)) (((A) (B) (C) (D) (E) (F) (G) (H) (I) (J) (K) (L) (M) (N) (O) (P) (Q) (R) (S) (T) (U) (V) (W) (X))))
(declare-datatypes ((Tower 0)) (((stack (top Enum_A_B_C_D_E_F_G_H_I_J_K_L_M_N_O_P_Q_R_S_T_U_V_W_X) (rest Tower)) (empty))))
(declare-datatypes ((Record_left_center_right 0)) (((Record_left_center_right (left Tower) (center Tower) (right Tower)))))
(declare-datatypes ((Enum_left-to-center_left-to-right_center-to-left_center-to-right_right-to-left_right-to-center 0)) (((left-to-center) (left-to-right) (center-to-left) (center-to-right) (right-to-left) (right-to-center))))
(declare-fun s () Record_left_center_right)
(declare-fun s_tmp () Record_left_center_right)
(declare-fun c () Enum_left-to-center_left-to-right_center-to-left_center-to-right_right-to-left_right-to-center)
(declare-fun c_tmp () Enum_left-to-center_left-to-right_center-to-left_center-to-right_right-to-left_right-to-center)
(declare-fun s_tmp_ () Record_left_center_right)
(declare-fun s_tmp__ () Record_left_center_right)
(declare-fun s_tmp___ () Record_left_center_right)
(declare-fun c!0 () Enum_left-to-center_left-to-right_center-to-left_center-to-right_right-to-left_right-to-center)
(declare-fun c_tmp____ () Enum_left-to-center_left-to-right_center-to-left_center-to-right_right-to-left_right-to-center)
(declare-fun s_ () Record_left_center_right)
(declare-fun c_ () Enum_left-to-center_left-to-right_center-to-left_center-to-right_right-to-left_right-to-center)
(declare-fun c!1 () Enum_left-to-center_left-to-right_center-to-left_center-to-right_right-to-left_right-to-center)
(declare-fun c__ () Enum_left-to-center_left-to-right_center-to-left_center-to-right_right-to-left_right-to-center)
(declare-fun s__ () Record_left_center_right)
(declare-fun c!2 () Enum_left-to-center_left-to-right_center-to-left_center-to-right_right-to-left_right-to-center)
(declare-fun c___ () Enum_left-to-center_left-to-right_center-to-left_center-to-right_right-to-left_right-to-center)
(declare-fun s___ () Record_left_center_right)
(declare-fun c!3 () Enum_left-to-center_left-to-right_center-to-left_center-to-right_right-to-left_right-to-center)
(declare-fun c____ () Enum_left-to-center_left-to-right_center-to-left_center-to-right_right-to-left_right-to-center)
(declare-fun s____ () Record_left_center_right)
(declare-fun c!4 () Enum_left-to-center_left-to-right_center-to-left_center-to-right_right-to-left_right-to-center)
(declare-fun c_____ () Enum_left-to-center_left-to-right_center-to-left_center-to-right_right-to-left_right-to-center)
(declare-fun s_____ () Record_left_center_right)
(declare-fun c!5 () Enum_left-to-center_left-to-right_center-to-left_center-to-right_right-to-left_right-to-center)
(declare-fun c______ () Enum_left-to-center_left-to-right_center-to-left_center-to-right_right-to-left_right-to-center)
(declare-fun s______ () Record_left_center_right)
(declare-fun c!6 () Enum_left-to-center_left-to-right_center-to-left_center-to-right_right-to-left_right-to-center)
(declare-fun c_______ () Enum_left-to-center_left-to-right_center-to-left_center-to-right_right-to-left_right-to-center)
(declare-fun s_______ () Record_left_center_right)
(declare-fun c!7 () Enum_left-to-center_left-to-right_center-to-left_center-to-right_right-to-left_right-to-center)
(declare-fun c________ () Enum_left-to-center_left-to-right_center-to-left_center-to-right_right-to-left_right-to-center)
(declare-fun s________ () Record_left_center_right)
(declare-fun c!8 () Enum_left-to-center_left-to-right_center-to-left_center-to-right_right-to-left_right-to-center)
(declare-fun c_________ () Enum_left-to-center_left-to-right_center-to-left_center-to-right_right-to-left_right-to-center)
(declare-fun s_________ () Record_left_center_right)
(assert
 (= s_tmp s))
(assert
 (= c_tmp c))
(assert
 (let ((?x37 (stack T empty)))
 (let ((?x36 (stack M ?x37)))
 (let ((?x38 (stack J ?x36)))
 (let ((?x39 (stack A ?x38)))
 (let ((?x40 (stack C ?x39)))
 (let ((?x41 (stack O ?x40)))
 (let ((?x42 (stack W ?x41)))
 (let ((?x130 (left s_tmp_)))
 (= ?x130 ?x42))))))))))
(assert
 (let ((?x43 (stack N empty)))
 (let ((?x44 (stack R ?x43)))
 (let ((?x45 (stack D ?x44)))
 (let ((?x46 (stack B ?x45)))
 (let ((?x133 (center s_tmp__)))
 (= ?x133 ?x46)))))))
(assert
 (let ((?x47 (stack E empty)))
 (let ((?x48 (stack F ?x47)))
 (let ((?x49 (stack G ?x48)))
 (let ((?x50 (stack H ?x49)))
 (let ((?x51 (stack I ?x50)))
 (let ((?x52 (stack K ?x51)))
 (let ((?x53 (stack L ?x52)))
 (let ((?x54 (stack P ?x53)))
 (let ((?x55 (stack Q ?x54)))
 (let ((?x56 (stack S ?x55)))
 (let ((?x57 (stack U ?x56)))
 (let ((?x58 (stack V ?x57)))
 (let ((?x59 (stack X ?x58)))
 (let ((?x136 (right s_tmp___)))
 (= ?x136 ?x59))))))))))))))))
(assert
 (= c_tmp____ c!0))
(assert
 (= s_ s_tmp___))
(assert
 (= c_ c_tmp____))
(assert
 (let ((?x163 (left s_tmp__)))
 (= (left s_tmp___) ?x163)))
(assert
 (let ((?x133 (center s_tmp__)))
 (= (center s_tmp___) ?x133)))
(assert
 (let ((?x167 (center s_tmp_)))
 (= ?x167 (center s_tmp))))
(assert
 (let ((?x170 (right s_tmp_)))
 (= ?x170 (right s_tmp))))
(assert
 (let ((?x130 (left s_tmp_)))
 (let ((?x163 (left s_tmp__)))
 (= ?x163 ?x130))))
(assert
 (let ((?x170 (right s_tmp_)))
 (let ((?x174 (right s_tmp__)))
 (= ?x174 ?x170))))
(assert
 (= c__ c!1))
(assert
 (let ((?x107 (left s_)))
 (let ((?x293 (left s__)))
 (let (($x335 (= ?x293 ?x107)))
 (let ((?x110 (right s_)))
 (let (($x302 ((_ is stack ) ?x110)))
 (let (($x311 (= c_ right-to-left)))
 (let (($x315 (and $x311 $x302)))
 (let ((?x112 (center s_)))
 (let (($x316 ((_ is stack ) ?x112)))
 (let (($x317 (= c_ center-to-right)))
 (let (($x294 (and $x317 $x316)))
 (let (($x295 (= c_ center-to-left)))
 (let (($x296 (and $x295 $x316)))
 (let (($x344 (ite $x296 (= ?x293 (stack (top ?x112) ?x107)) (ite $x294 $x335 (ite $x315 (= ?x293 (stack (top ?x110) ?x107)) $x335)))))
 (let (($x304 (= ?x293 (rest ?x107))))
 (let (($x324 ((_ is stack ) ?x107)))
 (let (($x325 (= c_ left-to-right)))
 (let (($x326 (and $x325 $x324)))
 (let (($x312 (= c_ left-to-center)))
 (let (($x313 (and $x312 $x324)))
 (ite $x313 $x304 (ite $x326 $x304 $x344)))))))))))))))))))))))
(assert
 (let ((?x110 (right s_)))
 (let ((?x298 (right s__)))
 (let (($x331 (= ?x298 ?x110)))
 (let (($x322 (= ?x298 (rest ?x110))))
 (let (($x302 ((_ is stack ) ?x110)))
 (let (($x309 (= c_ right-to-center)))
 (let (($x310 (and $x309 $x302)))
 (let (($x311 (= c_ right-to-left)))
 (let (($x315 (and $x311 $x302)))
 (let ((?x112 (center s_)))
 (let (($x316 ((_ is stack ) ?x112)))
 (let (($x317 (= c_ center-to-right)))
 (let (($x294 (and $x317 $x316)))
 (let (($x341 (ite $x294 (= ?x298 (stack (top ?x112) ?x110)) (ite $x315 $x322 (ite $x310 $x322 $x331)))))
 (let (($x295 (= c_ center-to-left)))
 (let (($x296 (and $x295 $x316)))
 (let ((?x107 (left s_)))
 (let (($x324 ((_ is stack ) ?x107)))
 (let (($x325 (= c_ left-to-right)))
 (let (($x326 (and $x325 $x324)))
 (let (($x312 (= c_ left-to-center)))
 (let (($x313 (and $x312 $x324)))
 (ite $x313 (= ?x298 (stack (top ?x107) ?x110)) (ite $x326 $x331 (ite $x296 $x331 $x341))))))))))))))))))))))))))
(assert
 (let ((?x112 (center s_)))
 (let ((?x289 (center s__)))
 (let (($x333 (= ?x289 ?x112)))
 (let ((?x110 (right s_)))
 (let (($x302 ((_ is stack ) ?x110)))
 (let (($x309 (= c_ right-to-center)))
 (let (($x310 (and $x309 $x302)))
 (let (($x311 (= c_ right-to-left)))
 (let (($x315 (and $x311 $x302)))
 (let (($x319 (= ?x289 (rest ?x112))))
 (let (($x316 ((_ is stack ) ?x112)))
 (let (($x317 (= c_ center-to-right)))
 (let (($x294 (and $x317 $x316)))
 (let (($x340 (ite $x294 $x319 (ite $x315 $x333 (ite $x310 (= ?x289 (stack (top ?x110) ?x112)) $x333)))))
 (let (($x295 (= c_ center-to-left)))
 (let (($x296 (and $x295 $x316)))
 (let ((?x107 (left s_)))
 (let (($x324 ((_ is stack ) ?x107)))
 (let (($x325 (= c_ left-to-right)))
 (let (($x326 (and $x325 $x324)))
 (let (($x312 (= c_ left-to-center)))
 (let (($x313 (and $x312 $x324)))
 (ite $x313 $x333 (ite $x326 (= ?x289 (stack (top ?x107) ?x112)) (ite $x296 $x319 $x340))))))))))))))))))))))))))
(assert
 (= c___ c!2))
(assert
 (let ((?x293 (left s__)))
 (let ((?x177 (left s___)))
 (let (($x464 (= ?x177 ?x293)))
 (let ((?x298 (right s__)))
 (let ((?x431 (top ?x298)))
 (let ((?x432 (stack ?x431 ?x293)))
 (let (($x458 (= ?x177 ?x432)))
 (let (($x434 ((_ is stack ) ?x298)))
 (let (($x437 (= c__ right-to-left)))
 (let (($x438 (and $x437 $x434)))
 (let ((?x289 (center s__)))
 (let (($x439 ((_ is stack ) ?x289)))
 (let (($x440 (= c__ center-to-right)))
 (let (($x441 (and $x440 $x439)))
 (let ((?x427 (top ?x289)))
 (let ((?x428 (stack ?x427 ?x293)))
 (let (($x455 (= ?x177 ?x428)))
 (let (($x442 (= c__ center-to-left)))
 (let (($x443 (and $x442 $x439)))
 (let ((?x179 (rest ?x293)))
 (let (($x451 (= ?x177 ?x179)))
 (let (($x444 ((_ is stack ) ?x293)))
 (let (($x445 (= c__ left-to-right)))
 (let (($x446 (and $x445 $x444)))
 (let (($x447 (= c__ left-to-center)))
 (let (($x448 (and $x447 $x444)))
 (ite $x448 $x451 (ite $x446 $x451 (ite $x443 $x455 (ite $x441 $x464 (ite $x438 $x458 $x464))))))))))))))))))))))))))))))))
(assert
 (let ((?x298 (right s__)))
 (let ((?x180 (right s___)))
 (let (($x460 (= ?x180 ?x298)))
 (let ((?x430 (rest ?x298)))
 (let (($x457 (= ?x180 ?x430)))
 (let (($x434 ((_ is stack ) ?x298)))
 (let (($x435 (= c__ right-to-center)))
 (let (($x436 (and $x435 $x434)))
 (let (($x437 (= c__ right-to-left)))
 (let (($x438 (and $x437 $x434)))
 (let ((?x289 (center s__)))
 (let ((?x427 (top ?x289)))
 (let ((?x429 (stack ?x427 ?x298)))
 (let (($x456 (= ?x180 ?x429)))
 (let (($x439 ((_ is stack ) ?x289)))
 (let (($x440 (= c__ center-to-right)))
 (let (($x441 (and $x440 $x439)))
 (let (($x442 (= c__ center-to-left)))
 (let (($x443 (and $x442 $x439)))
 (let ((?x293 (left s__)))
 (let (($x444 ((_ is stack ) ?x293)))
 (let (($x445 (= c__ left-to-right)))
 (let (($x446 (and $x445 $x444)))
 (let (($x477 (ite $x446 $x460 (ite $x443 $x460 (ite $x441 $x456 (ite $x438 $x457 (ite $x436 $x457 $x460)))))))
 (let ((?x287 (top ?x293)))
 (let ((?x423 (stack ?x287 ?x298)))
 (let (($x452 (= ?x180 ?x423)))
 (let (($x447 (= c__ left-to-center)))
 (let (($x448 (and $x447 $x444)))
 (ite $x448 $x452 $x477)))))))))))))))))))))))))))))))
(assert
 (let ((?x289 (center s__)))
 (let ((?x424 (center s___)))
 (let (($x462 (= ?x424 ?x289)))
 (let ((?x298 (right s__)))
 (let ((?x431 (top ?x298)))
 (let ((?x433 (stack ?x431 ?x289)))
 (let (($x459 (= ?x424 ?x433)))
 (let (($x434 ((_ is stack ) ?x298)))
 (let (($x435 (= c__ right-to-center)))
 (let (($x436 (and $x435 $x434)))
 (let (($x437 (= c__ right-to-left)))
 (let (($x438 (and $x437 $x434)))
 (let ((?x426 (rest ?x289)))
 (let (($x454 (= ?x424 ?x426)))
 (let (($x439 ((_ is stack ) ?x289)))
 (let (($x440 (= c__ center-to-right)))
 (let (($x441 (and $x440 $x439)))
 (let (($x442 (= c__ center-to-left)))
 (let (($x443 (and $x442 $x439)))
 (let ((?x293 (left s__)))
 (let ((?x287 (top ?x293)))
 (let ((?x425 (stack ?x287 ?x289)))
 (let (($x453 (= ?x424 ?x425)))
 (let (($x444 ((_ is stack ) ?x293)))
 (let (($x445 (= c__ left-to-right)))
 (let (($x446 (and $x445 $x444)))
 (let (($x476 (ite $x446 $x453 (ite $x443 $x454 (ite $x441 $x454 (ite $x438 $x462 (ite $x436 $x459 $x462)))))))
 (let (($x447 (= c__ left-to-center)))
 (let (($x448 (and $x447 $x444)))
 (ite $x448 $x462 $x476)))))))))))))))))))))))))))))))
(assert
 (= c____ c!3))
(assert
 (let ((?x177 (left s___)))
 (let ((?x351 (left s____)))
 (let (($x602 (= ?x351 ?x177)))
 (let ((?x180 (right s___)))
 (let ((?x569 (top ?x180)))
 (let ((?x570 (stack ?x569 ?x177)))
 (let (($x596 (= ?x351 ?x570)))
 (let (($x572 ((_ is stack ) ?x180)))
 (let (($x575 (= c___ right-to-left)))
 (let (($x576 (and $x575 $x572)))
 (let ((?x424 (center s___)))
 (let (($x577 ((_ is stack ) ?x424)))
 (let (($x578 (= c___ center-to-right)))
 (let (($x579 (and $x578 $x577)))
 (let ((?x565 (top ?x424)))
 (let ((?x566 (stack ?x565 ?x177)))
 (let (($x593 (= ?x351 ?x566)))
 (let (($x580 (= c___ center-to-left)))
 (let (($x581 (and $x580 $x577)))
 (let ((?x395 (rest ?x177)))
 (let (($x589 (= ?x351 ?x395)))
 (let (($x582 ((_ is stack ) ?x177)))
 (let (($x583 (= c___ left-to-right)))
 (let (($x584 (and $x583 $x582)))
 (let (($x585 (= c___ left-to-center)))
 (let (($x586 (and $x585 $x582)))
 (ite $x586 $x589 (ite $x584 $x589 (ite $x581 $x593 (ite $x579 $x602 (ite $x576 $x596 $x602))))))))))))))))))))))))))))))))
(assert
 (let ((?x180 (right s___)))
 (let ((?x396 (right s____)))
 (let (($x598 (= ?x396 ?x180)))
 (let ((?x568 (rest ?x180)))
 (let (($x595 (= ?x396 ?x568)))
 (let (($x572 ((_ is stack ) ?x180)))
 (let (($x573 (= c___ right-to-center)))
 (let (($x574 (and $x573 $x572)))
 (let (($x575 (= c___ right-to-left)))
 (let (($x576 (and $x575 $x572)))
 (let ((?x424 (center s___)))
 (let ((?x565 (top ?x424)))
 (let ((?x567 (stack ?x565 ?x180)))
 (let (($x594 (= ?x396 ?x567)))
 (let (($x577 ((_ is stack ) ?x424)))
 (let (($x578 (= c___ center-to-right)))
 (let (($x579 (and $x578 $x577)))
 (let (($x580 (= c___ center-to-left)))
 (let (($x581 (and $x580 $x577)))
 (let ((?x177 (left s___)))
 (let (($x582 ((_ is stack ) ?x177)))
 (let (($x583 (= c___ left-to-right)))
 (let (($x584 (and $x583 $x582)))
 (let (($x615 (ite $x584 $x598 (ite $x581 $x598 (ite $x579 $x594 (ite $x576 $x595 (ite $x574 $x595 $x598)))))))
 (let ((?x422 (top ?x177)))
 (let ((?x561 (stack ?x422 ?x180)))
 (let (($x590 (= ?x396 ?x561)))
 (let (($x585 (= c___ left-to-center)))
 (let (($x586 (and $x585 $x582)))
 (ite $x586 $x590 $x615)))))))))))))))))))))))))))))))
(assert
 (let ((?x424 (center s___)))
 (let ((?x562 (center s____)))
 (let (($x600 (= ?x562 ?x424)))
 (let ((?x180 (right s___)))
 (let ((?x569 (top ?x180)))
 (let ((?x571 (stack ?x569 ?x424)))
 (let (($x597 (= ?x562 ?x571)))
 (let (($x572 ((_ is stack ) ?x180)))
 (let (($x573 (= c___ right-to-center)))
 (let (($x574 (and $x573 $x572)))
 (let (($x575 (= c___ right-to-left)))
 (let (($x576 (and $x575 $x572)))
 (let ((?x564 (rest ?x424)))
 (let (($x592 (= ?x562 ?x564)))
 (let (($x577 ((_ is stack ) ?x424)))
 (let (($x578 (= c___ center-to-right)))
 (let (($x579 (and $x578 $x577)))
 (let (($x580 (= c___ center-to-left)))
 (let (($x581 (and $x580 $x577)))
 (let ((?x177 (left s___)))
 (let ((?x422 (top ?x177)))
 (let ((?x563 (stack ?x422 ?x424)))
 (let (($x591 (= ?x562 ?x563)))
 (let (($x582 ((_ is stack ) ?x177)))
 (let (($x583 (= c___ left-to-right)))
 (let (($x584 (and $x583 $x582)))
 (let (($x614 (ite $x584 $x591 (ite $x581 $x592 (ite $x579 $x592 (ite $x576 $x600 (ite $x574 $x597 $x600)))))))
 (let (($x585 (= c___ left-to-center)))
 (let (($x586 (and $x585 $x582)))
 (ite $x586 $x600 $x614)))))))))))))))))))))))))))))))
(assert
 (= c_____ c!4))
(assert
 (let ((?x351 (left s____)))
 (let ((?x480 (left s_____)))
 (let (($x740 (= ?x480 ?x351)))
 (let ((?x396 (right s____)))
 (let ((?x707 (top ?x396)))
 (let ((?x708 (stack ?x707 ?x351)))
 (let (($x734 (= ?x480 ?x708)))
 (let (($x710 ((_ is stack ) ?x396)))
 (let (($x713 (= c____ right-to-left)))
 (let (($x714 (and $x713 $x710)))
 (let ((?x562 (center s____)))
 (let (($x715 ((_ is stack ) ?x562)))
 (let (($x716 (= c____ center-to-right)))
 (let (($x717 (and $x716 $x715)))
 (let ((?x703 (top ?x562)))
 (let ((?x704 (stack ?x703 ?x351)))
 (let (($x731 (= ?x480 ?x704)))
 (let (($x718 (= c____ center-to-left)))
 (let (($x719 (and $x718 $x715)))
 (let ((?x513 (rest ?x351)))
 (let (($x727 (= ?x480 ?x513)))
 (let (($x720 ((_ is stack ) ?x351)))
 (let (($x721 (= c____ left-to-right)))
 (let (($x722 (and $x721 $x720)))
 (let (($x723 (= c____ left-to-center)))
 (let (($x724 (and $x723 $x720)))
 (ite $x724 $x727 (ite $x722 $x727 (ite $x719 $x731 (ite $x717 $x740 (ite $x714 $x734 $x740))))))))))))))))))))))))))))))))
(assert
 (let ((?x396 (right s____)))
 (let ((?x514 (right s_____)))
 (let (($x736 (= ?x514 ?x396)))
 (let ((?x706 (rest ?x396)))
 (let (($x733 (= ?x514 ?x706)))
 (let (($x710 ((_ is stack ) ?x396)))
 (let (($x711 (= c____ right-to-center)))
 (let (($x712 (and $x711 $x710)))
 (let (($x713 (= c____ right-to-left)))
 (let (($x714 (and $x713 $x710)))
 (let ((?x562 (center s____)))
 (let ((?x703 (top ?x562)))
 (let ((?x705 (stack ?x703 ?x396)))
 (let (($x732 (= ?x514 ?x705)))
 (let (($x715 ((_ is stack ) ?x562)))
 (let (($x716 (= c____ center-to-right)))
 (let (($x717 (and $x716 $x715)))
 (let (($x718 (= c____ center-to-left)))
 (let (($x719 (and $x718 $x715)))
 (let ((?x351 (left s____)))
 (let (($x720 ((_ is stack ) ?x351)))
 (let (($x721 (= c____ left-to-right)))
 (let (($x722 (and $x721 $x720)))
 (let (($x753 (ite $x722 $x736 (ite $x719 $x736 (ite $x717 $x732 (ite $x714 $x733 (ite $x712 $x733 $x736)))))))
 (let ((?x560 (top ?x351)))
 (let ((?x699 (stack ?x560 ?x396)))
 (let (($x728 (= ?x514 ?x699)))
 (let (($x723 (= c____ left-to-center)))
 (let (($x724 (and $x723 $x720)))
 (ite $x724 $x728 $x753)))))))))))))))))))))))))))))))
(assert
 (let ((?x562 (center s____)))
 (let ((?x700 (center s_____)))
 (let (($x738 (= ?x700 ?x562)))
 (let ((?x396 (right s____)))
 (let ((?x707 (top ?x396)))
 (let ((?x709 (stack ?x707 ?x562)))
 (let (($x735 (= ?x700 ?x709)))
 (let (($x710 ((_ is stack ) ?x396)))
 (let (($x711 (= c____ right-to-center)))
 (let (($x712 (and $x711 $x710)))
 (let (($x713 (= c____ right-to-left)))
 (let (($x714 (and $x713 $x710)))
 (let ((?x702 (rest ?x562)))
 (let (($x730 (= ?x700 ?x702)))
 (let (($x715 ((_ is stack ) ?x562)))
 (let (($x716 (= c____ center-to-right)))
 (let (($x717 (and $x716 $x715)))
 (let (($x718 (= c____ center-to-left)))
 (let (($x719 (and $x718 $x715)))
 (let ((?x351 (left s____)))
 (let ((?x560 (top ?x351)))
 (let ((?x701 (stack ?x560 ?x562)))
 (let (($x729 (= ?x700 ?x701)))
 (let (($x720 ((_ is stack ) ?x351)))
 (let (($x721 (= c____ left-to-right)))
 (let (($x722 (and $x721 $x720)))
 (let (($x752 (ite $x722 $x729 (ite $x719 $x730 (ite $x717 $x730 (ite $x714 $x738 (ite $x712 $x735 $x738)))))))
 (let (($x723 (= c____ left-to-center)))
 (let (($x724 (and $x723 $x720)))
 (ite $x724 $x738 $x752)))))))))))))))))))))))))))))))
(assert
 (= c______ c!5))
(assert
 (let ((?x480 (left s_____)))
 (let ((?x618 (left s______)))
 (let (($x878 (= ?x618 ?x480)))
 (let ((?x514 (right s_____)))
 (let ((?x845 (top ?x514)))
 (let ((?x846 (stack ?x845 ?x480)))
 (let (($x872 (= ?x618 ?x846)))
 (let (($x848 ((_ is stack ) ?x514)))
 (let (($x851 (= c_____ right-to-left)))
 (let (($x852 (and $x851 $x848)))
 (let ((?x700 (center s_____)))
 (let (($x853 ((_ is stack ) ?x700)))
 (let (($x854 (= c_____ center-to-right)))
 (let (($x855 (and $x854 $x853)))
 (let ((?x841 (top ?x700)))
 (let ((?x842 (stack ?x841 ?x480)))
 (let (($x869 (= ?x618 ?x842)))
 (let (($x856 (= c_____ center-to-left)))
 (let (($x857 (and $x856 $x853)))
 (let ((?x651 (rest ?x480)))
 (let (($x865 (= ?x618 ?x651)))
 (let (($x858 ((_ is stack ) ?x480)))
 (let (($x859 (= c_____ left-to-right)))
 (let (($x860 (and $x859 $x858)))
 (let (($x861 (= c_____ left-to-center)))
 (let (($x862 (and $x861 $x858)))
 (ite $x862 $x865 (ite $x860 $x865 (ite $x857 $x869 (ite $x855 $x878 (ite $x852 $x872 $x878))))))))))))))))))))))))))))))))
(assert
 (let ((?x514 (right s_____)))
 (let ((?x652 (right s______)))
 (let (($x874 (= ?x652 ?x514)))
 (let ((?x844 (rest ?x514)))
 (let (($x871 (= ?x652 ?x844)))
 (let (($x848 ((_ is stack ) ?x514)))
 (let (($x849 (= c_____ right-to-center)))
 (let (($x850 (and $x849 $x848)))
 (let (($x851 (= c_____ right-to-left)))
 (let (($x852 (and $x851 $x848)))
 (let ((?x700 (center s_____)))
 (let ((?x841 (top ?x700)))
 (let ((?x843 (stack ?x841 ?x514)))
 (let (($x870 (= ?x652 ?x843)))
 (let (($x853 ((_ is stack ) ?x700)))
 (let (($x854 (= c_____ center-to-right)))
 (let (($x855 (and $x854 $x853)))
 (let (($x856 (= c_____ center-to-left)))
 (let (($x857 (and $x856 $x853)))
 (let ((?x480 (left s_____)))
 (let (($x858 ((_ is stack ) ?x480)))
 (let (($x859 (= c_____ left-to-right)))
 (let (($x860 (and $x859 $x858)))
 (let (($x891 (ite $x860 $x874 (ite $x857 $x874 (ite $x855 $x870 (ite $x852 $x871 (ite $x850 $x871 $x874)))))))
 (let ((?x698 (top ?x480)))
 (let ((?x837 (stack ?x698 ?x514)))
 (let (($x866 (= ?x652 ?x837)))
 (let (($x861 (= c_____ left-to-center)))
 (let (($x862 (and $x861 $x858)))
 (ite $x862 $x866 $x891)))))))))))))))))))))))))))))))
(assert
 (let ((?x700 (center s_____)))
 (let ((?x838 (center s______)))
 (let (($x876 (= ?x838 ?x700)))
 (let ((?x514 (right s_____)))
 (let ((?x845 (top ?x514)))
 (let ((?x847 (stack ?x845 ?x700)))
 (let (($x873 (= ?x838 ?x847)))
 (let (($x848 ((_ is stack ) ?x514)))
 (let (($x849 (= c_____ right-to-center)))
 (let (($x850 (and $x849 $x848)))
 (let (($x851 (= c_____ right-to-left)))
 (let (($x852 (and $x851 $x848)))
 (let ((?x840 (rest ?x700)))
 (let (($x868 (= ?x838 ?x840)))
 (let (($x853 ((_ is stack ) ?x700)))
 (let (($x854 (= c_____ center-to-right)))
 (let (($x855 (and $x854 $x853)))
 (let (($x856 (= c_____ center-to-left)))
 (let (($x857 (and $x856 $x853)))
 (let ((?x480 (left s_____)))
 (let ((?x698 (top ?x480)))
 (let ((?x839 (stack ?x698 ?x700)))
 (let (($x867 (= ?x838 ?x839)))
 (let (($x858 ((_ is stack ) ?x480)))
 (let (($x859 (= c_____ left-to-right)))
 (let (($x860 (and $x859 $x858)))
 (let (($x890 (ite $x860 $x867 (ite $x857 $x868 (ite $x855 $x868 (ite $x852 $x876 (ite $x850 $x873 $x876)))))))
 (let (($x861 (= c_____ left-to-center)))
 (let (($x862 (and $x861 $x858)))
 (ite $x862 $x876 $x890)))))))))))))))))))))))))))))))
(assert
 (= c_______ c!6))
(assert
 (let ((?x618 (left s______)))
 (let ((?x756 (left s_______)))
 (let (($x1016 (= ?x756 ?x618)))
 (let ((?x652 (right s______)))
 (let ((?x983 (top ?x652)))
 (let ((?x984 (stack ?x983 ?x618)))
 (let (($x1010 (= ?x756 ?x984)))
 (let (($x986 ((_ is stack ) ?x652)))
 (let (($x989 (= c______ right-to-left)))
 (let (($x990 (and $x989 $x986)))
 (let ((?x838 (center s______)))
 (let (($x991 ((_ is stack ) ?x838)))
 (let (($x992 (= c______ center-to-right)))
 (let (($x993 (and $x992 $x991)))
 (let ((?x979 (top ?x838)))
 (let ((?x980 (stack ?x979 ?x618)))
 (let (($x1007 (= ?x756 ?x980)))
 (let (($x994 (= c______ center-to-left)))
 (let (($x995 (and $x994 $x991)))
 (let ((?x789 (rest ?x618)))
 (let (($x1003 (= ?x756 ?x789)))
 (let (($x996 ((_ is stack ) ?x618)))
 (let (($x997 (= c______ left-to-right)))
 (let (($x998 (and $x997 $x996)))
 (let (($x999 (= c______ left-to-center)))
 (let (($x1000 (and $x999 $x996)))
 (ite $x1000 $x1003 (ite $x998 $x1003 (ite $x995 $x1007 (ite $x993 $x1016 (ite $x990 $x1010 $x1016))))))))))))))))))))))))))))))))
(assert
 (let ((?x652 (right s______)))
 (let ((?x790 (right s_______)))
 (let (($x1012 (= ?x790 ?x652)))
 (let ((?x982 (rest ?x652)))
 (let (($x1009 (= ?x790 ?x982)))
 (let (($x986 ((_ is stack ) ?x652)))
 (let (($x987 (= c______ right-to-center)))
 (let (($x988 (and $x987 $x986)))
 (let (($x989 (= c______ right-to-left)))
 (let (($x990 (and $x989 $x986)))
 (let ((?x838 (center s______)))
 (let ((?x979 (top ?x838)))
 (let ((?x981 (stack ?x979 ?x652)))
 (let (($x1008 (= ?x790 ?x981)))
 (let (($x991 ((_ is stack ) ?x838)))
 (let (($x992 (= c______ center-to-right)))
 (let (($x993 (and $x992 $x991)))
 (let (($x994 (= c______ center-to-left)))
 (let (($x995 (and $x994 $x991)))
 (let ((?x618 (left s______)))
 (let (($x996 ((_ is stack ) ?x618)))
 (let (($x997 (= c______ left-to-right)))
 (let (($x998 (and $x997 $x996)))
 (let (($x1029 (ite $x998 $x1012 (ite $x995 $x1012 (ite $x993 $x1008 (ite $x990 $x1009 (ite $x988 $x1009 $x1012)))))))
 (let ((?x836 (top ?x618)))
 (let ((?x975 (stack ?x836 ?x652)))
 (let (($x1004 (= ?x790 ?x975)))
 (let (($x999 (= c______ left-to-center)))
 (let (($x1000 (and $x999 $x996)))
 (ite $x1000 $x1004 $x1029)))))))))))))))))))))))))))))))
(assert
 (let ((?x838 (center s______)))
 (let ((?x976 (center s_______)))
 (let (($x1014 (= ?x976 ?x838)))
 (let ((?x652 (right s______)))
 (let ((?x983 (top ?x652)))
 (let ((?x985 (stack ?x983 ?x838)))
 (let (($x1011 (= ?x976 ?x985)))
 (let (($x986 ((_ is stack ) ?x652)))
 (let (($x987 (= c______ right-to-center)))
 (let (($x988 (and $x987 $x986)))
 (let (($x989 (= c______ right-to-left)))
 (let (($x990 (and $x989 $x986)))
 (let ((?x978 (rest ?x838)))
 (let (($x1006 (= ?x976 ?x978)))
 (let (($x991 ((_ is stack ) ?x838)))
 (let (($x992 (= c______ center-to-right)))
 (let (($x993 (and $x992 $x991)))
 (let (($x994 (= c______ center-to-left)))
 (let (($x995 (and $x994 $x991)))
 (let ((?x618 (left s______)))
 (let ((?x836 (top ?x618)))
 (let ((?x977 (stack ?x836 ?x838)))
 (let (($x1005 (= ?x976 ?x977)))
 (let (($x996 ((_ is stack ) ?x618)))
 (let (($x997 (= c______ left-to-right)))
 (let (($x998 (and $x997 $x996)))
 (let (($x1028 (ite $x998 $x1005 (ite $x995 $x1006 (ite $x993 $x1006 (ite $x990 $x1014 (ite $x988 $x1011 $x1014)))))))
 (let (($x999 (= c______ left-to-center)))
 (let (($x1000 (and $x999 $x996)))
 (ite $x1000 $x1014 $x1028)))))))))))))))))))))))))))))))
(assert
 (= c________ c!7))
(assert
 (let ((?x756 (left s_______)))
 (let ((?x894 (left s________)))
 (let (($x1154 (= ?x894 ?x756)))
 (let ((?x790 (right s_______)))
 (let ((?x1121 (top ?x790)))
 (let ((?x1122 (stack ?x1121 ?x756)))
 (let (($x1148 (= ?x894 ?x1122)))
 (let (($x1124 ((_ is stack ) ?x790)))
 (let (($x1127 (= c_______ right-to-left)))
 (let (($x1128 (and $x1127 $x1124)))
 (let ((?x976 (center s_______)))
 (let (($x1129 ((_ is stack ) ?x976)))
 (let (($x1130 (= c_______ center-to-right)))
 (let (($x1131 (and $x1130 $x1129)))
 (let ((?x1117 (top ?x976)))
 (let ((?x1118 (stack ?x1117 ?x756)))
 (let (($x1145 (= ?x894 ?x1118)))
 (let (($x1132 (= c_______ center-to-left)))
 (let (($x1133 (and $x1132 $x1129)))
 (let ((?x927 (rest ?x756)))
 (let (($x1141 (= ?x894 ?x927)))
 (let (($x1134 ((_ is stack ) ?x756)))
 (let (($x1135 (= c_______ left-to-right)))
 (let (($x1136 (and $x1135 $x1134)))
 (let (($x1137 (= c_______ left-to-center)))
 (let (($x1138 (and $x1137 $x1134)))
 (ite $x1138 $x1141 (ite $x1136 $x1141 (ite $x1133 $x1145 (ite $x1131 $x1154 (ite $x1128 $x1148 $x1154))))))))))))))))))))))))))))))))
(assert
 (let ((?x790 (right s_______)))
 (let ((?x928 (right s________)))
 (let (($x1150 (= ?x928 ?x790)))
 (let ((?x1120 (rest ?x790)))
 (let (($x1147 (= ?x928 ?x1120)))
 (let (($x1124 ((_ is stack ) ?x790)))
 (let (($x1125 (= c_______ right-to-center)))
 (let (($x1126 (and $x1125 $x1124)))
 (let (($x1127 (= c_______ right-to-left)))
 (let (($x1128 (and $x1127 $x1124)))
 (let ((?x976 (center s_______)))
 (let ((?x1117 (top ?x976)))
 (let ((?x1119 (stack ?x1117 ?x790)))
 (let (($x1146 (= ?x928 ?x1119)))
 (let (($x1129 ((_ is stack ) ?x976)))
 (let (($x1130 (= c_______ center-to-right)))
 (let (($x1131 (and $x1130 $x1129)))
 (let (($x1132 (= c_______ center-to-left)))
 (let (($x1133 (and $x1132 $x1129)))
 (let ((?x756 (left s_______)))
 (let (($x1134 ((_ is stack ) ?x756)))
 (let (($x1135 (= c_______ left-to-right)))
 (let (($x1136 (and $x1135 $x1134)))
 (let (($x1167 (ite $x1136 $x1150 (ite $x1133 $x1150 (ite $x1131 $x1146 (ite $x1128 $x1147 (ite $x1126 $x1147 $x1150)))))))
 (let ((?x974 (top ?x756)))
 (let ((?x1113 (stack ?x974 ?x790)))
 (let (($x1142 (= ?x928 ?x1113)))
 (let (($x1137 (= c_______ left-to-center)))
 (let (($x1138 (and $x1137 $x1134)))
 (ite $x1138 $x1142 $x1167)))))))))))))))))))))))))))))))
(assert
 (let ((?x976 (center s_______)))
 (let ((?x1114 (center s________)))
 (let (($x1152 (= ?x1114 ?x976)))
 (let ((?x790 (right s_______)))
 (let ((?x1121 (top ?x790)))
 (let ((?x1123 (stack ?x1121 ?x976)))
 (let (($x1149 (= ?x1114 ?x1123)))
 (let (($x1124 ((_ is stack ) ?x790)))
 (let (($x1125 (= c_______ right-to-center)))
 (let (($x1126 (and $x1125 $x1124)))
 (let (($x1127 (= c_______ right-to-left)))
 (let (($x1128 (and $x1127 $x1124)))
 (let ((?x1116 (rest ?x976)))
 (let (($x1144 (= ?x1114 ?x1116)))
 (let (($x1129 ((_ is stack ) ?x976)))
 (let (($x1130 (= c_______ center-to-right)))
 (let (($x1131 (and $x1130 $x1129)))
 (let (($x1132 (= c_______ center-to-left)))
 (let (($x1133 (and $x1132 $x1129)))
 (let ((?x756 (left s_______)))
 (let ((?x974 (top ?x756)))
 (let ((?x1115 (stack ?x974 ?x976)))
 (let (($x1143 (= ?x1114 ?x1115)))
 (let (($x1134 ((_ is stack ) ?x756)))
 (let (($x1135 (= c_______ left-to-right)))
 (let (($x1136 (and $x1135 $x1134)))
 (let (($x1166 (ite $x1136 $x1143 (ite $x1133 $x1144 (ite $x1131 $x1144 (ite $x1128 $x1152 (ite $x1126 $x1149 $x1152)))))))
 (let (($x1137 (= c_______ left-to-center)))
 (let (($x1138 (and $x1137 $x1134)))
 (ite $x1138 $x1152 $x1166)))))))))))))))))))))))))))))))
(assert
 (= c_________ c!8))
(assert
 (let ((?x894 (left s________)))
 (let ((?x1032 (left s_________)))
 (let (($x1292 (= ?x1032 ?x894)))
 (let ((?x928 (right s________)))
 (let ((?x1259 (top ?x928)))
 (let ((?x1260 (stack ?x1259 ?x894)))
 (let (($x1286 (= ?x1032 ?x1260)))
 (let (($x1262 ((_ is stack ) ?x928)))
 (let (($x1265 (= c________ right-to-left)))
 (let (($x1266 (and $x1265 $x1262)))
 (let ((?x1114 (center s________)))
 (let (($x1267 ((_ is stack ) ?x1114)))
 (let (($x1268 (= c________ center-to-right)))
 (let (($x1269 (and $x1268 $x1267)))
 (let ((?x1255 (top ?x1114)))
 (let ((?x1256 (stack ?x1255 ?x894)))
 (let (($x1283 (= ?x1032 ?x1256)))
 (let (($x1270 (= c________ center-to-left)))
 (let (($x1271 (and $x1270 $x1267)))
 (let ((?x1065 (rest ?x894)))
 (let (($x1279 (= ?x1032 ?x1065)))
 (let (($x1272 ((_ is stack ) ?x894)))
 (let (($x1273 (= c________ left-to-right)))
 (let (($x1274 (and $x1273 $x1272)))
 (let (($x1275 (= c________ left-to-center)))
 (let (($x1276 (and $x1275 $x1272)))
 (ite $x1276 $x1279 (ite $x1274 $x1279 (ite $x1271 $x1283 (ite $x1269 $x1292 (ite $x1266 $x1286 $x1292))))))))))))))))))))))))))))))))
(assert
 (let ((?x928 (right s________)))
 (let ((?x1066 (right s_________)))
 (let (($x1288 (= ?x1066 ?x928)))
 (let ((?x1258 (rest ?x928)))
 (let (($x1285 (= ?x1066 ?x1258)))
 (let (($x1262 ((_ is stack ) ?x928)))
 (let (($x1263 (= c________ right-to-center)))
 (let (($x1264 (and $x1263 $x1262)))
 (let (($x1265 (= c________ right-to-left)))
 (let (($x1266 (and $x1265 $x1262)))
 (let ((?x1114 (center s________)))
 (let ((?x1255 (top ?x1114)))
 (let ((?x1257 (stack ?x1255 ?x928)))
 (let (($x1284 (= ?x1066 ?x1257)))
 (let (($x1267 ((_ is stack ) ?x1114)))
 (let (($x1268 (= c________ center-to-right)))
 (let (($x1269 (and $x1268 $x1267)))
 (let (($x1270 (= c________ center-to-left)))
 (let (($x1271 (and $x1270 $x1267)))
 (let ((?x894 (left s________)))
 (let (($x1272 ((_ is stack ) ?x894)))
 (let (($x1273 (= c________ left-to-right)))
 (let (($x1274 (and $x1273 $x1272)))
 (let (($x1305 (ite $x1274 $x1288 (ite $x1271 $x1288 (ite $x1269 $x1284 (ite $x1266 $x1285 (ite $x1264 $x1285 $x1288)))))))
 (let ((?x1112 (top ?x894)))
 (let ((?x1251 (stack ?x1112 ?x928)))
 (let (($x1280 (= ?x1066 ?x1251)))
 (let (($x1275 (= c________ left-to-center)))
 (let (($x1276 (and $x1275 $x1272)))
 (ite $x1276 $x1280 $x1305)))))))))))))))))))))))))))))))
(assert
 (let ((?x1114 (center s________)))
 (let ((?x1252 (center s_________)))
 (let (($x1290 (= ?x1252 ?x1114)))
 (let ((?x928 (right s________)))
 (let ((?x1259 (top ?x928)))
 (let ((?x1261 (stack ?x1259 ?x1114)))
 (let (($x1287 (= ?x1252 ?x1261)))
 (let (($x1262 ((_ is stack ) ?x928)))
 (let (($x1263 (= c________ right-to-center)))
 (let (($x1264 (and $x1263 $x1262)))
 (let (($x1265 (= c________ right-to-left)))
 (let (($x1266 (and $x1265 $x1262)))
 (let ((?x1254 (rest ?x1114)))
 (let (($x1282 (= ?x1252 ?x1254)))
 (let (($x1267 ((_ is stack ) ?x1114)))
 (let (($x1268 (= c________ center-to-right)))
 (let (($x1269 (and $x1268 $x1267)))
 (let (($x1270 (= c________ center-to-left)))
 (let (($x1271 (and $x1270 $x1267)))
 (let ((?x894 (left s________)))
 (let ((?x1112 (top ?x894)))
 (let ((?x1253 (stack ?x1112 ?x1114)))
 (let (($x1281 (= ?x1252 ?x1253)))
 (let (($x1272 ((_ is stack ) ?x894)))
 (let (($x1273 (= c________ left-to-right)))
 (let (($x1274 (and $x1273 $x1272)))
 (let (($x1304 (ite $x1274 $x1281 (ite $x1271 $x1282 (ite $x1269 $x1282 (ite $x1266 $x1290 (ite $x1264 $x1287 $x1290)))))))
 (let (($x1275 (= c________ left-to-center)))
 (let (($x1276 (and $x1275 $x1272)))
 (ite $x1276 $x1290 $x1304)))))))))))))))))))))))))))))))
(assert
 (let ((?x83 (stack X (stack Q (stack M (stack I (stack F (stack D empty))))))))
 (let ((?x1066 (right s_________)))
 (let (($x1308 (= ?x1066 ?x83)))
 (let ((?x69 (stack V (stack U (stack E (stack O (stack S (stack H empty))))))))
 (let ((?x75 (stack N (stack T (stack P (stack L (stack B (stack C ?x69))))))))
 (let ((?x77 (stack K (stack R ?x75))))
 (let ((?x1252 (center s_________)))
 (let (($x1339 (= ?x1252 ?x77)))
 (let ((?x63 (stack G (stack W (stack A (stack J empty))))))
 (let ((?x1032 (left s_________)))
 (let (($x1340 (= ?x1032 ?x63)))
 (let (($x1342 (not (and $x1340 $x1339 $x1308))))
 (not $x1342))))))))))))))
(check-sat)
(exit)
